logs/drand/max/drand-05-075-2.lp
\ LP format - for model browsing. Use MPS format to capture full model detail.
Maximize
  x0,1_29 + x0,1_40 + x0,1_52 + x0,1_61 + x0,1_69 + x0,2_29 + x0,2_40
   + x0,2_52 + x0,2_61 + x0,2_69 + x0,3_29 + x0,3_40 + x0,3_52 + x0,3_61
   + x0,3_69 + x0,4_29 + x0,4_40 + x0,4_52 + x0,4_61 + x0,4_69 + x1,2_29
   + x1,2_40 + x1,2_52 + x1,2_61 + x1,2_69 + x1,3_29 + x1,3_40 + x1,3_52
   + x1,3_61 + x1,3_69 + x1,4_29 + x1,4_40 + x1,4_52 + x1,4_61 + x1,4_69
   + x2,3_29 + x2,3_40 + x2,3_52 + x2,3_61 + x2,3_69 + x2,4_29 + x2,4_40
   + x2,4_52 + x2,4_61 + x2,4_69 + x3,4_29 + x3,4_40 + x3,4_52 + x3,4_61
   + x3,4_69
Subject To
 R0: x0,1_29 + x0,2_29 + x0,3_29 + x0,4_29 + x1,2_29 + x1,3_29 + x1,4_29
   + x2,3_29 + x2,4_29 + x3,4_29 <= 1
 R1: x0,1_40 + x0,2_40 + x0,3_40 + x0,4_40 + x1,2_40 + x1,3_40 + x1,4_40
   + x2,3_40 + x2,4_40 + x3,4_40 <= 1
 R2: x0,1_52 + x0,2_52 + x0,3_52 + x0,4_52 + x1,2_52 + x1,3_52 + x1,4_52
   + x2,3_52 + x2,4_52 + x3,4_52 <= 1
 R3: x0,1_61 + x0,2_61 + x0,3_61 + x0,4_61 + x1,2_61 + x1,3_61 + x1,4_61
   + x2,3_61 + x2,4_61 + x3,4_61 <= 1
 R4: x0,1_69 + x0,2_69 + x0,3_69 + x0,4_69 + x1,2_69 + x1,3_69 + x1,4_69
   + x2,3_69 + x2,4_69 + x3,4_69 <= 1
 R5: x0,1_29 + x0,1_40 + x0,1_52 + x0,1_61 + x0,1_69 <= 1
 R6: x0,2_29 + x0,2_40 + x0,2_52 + x0,2_61 + x0,2_69 <= 1
 R7: x0,3_29 + x0,3_40 + x0,3_52 + x0,3_61 + x0,3_69 <= 1
 R8: x0,4_29 + x0,4_40 + x0,4_52 + x0,4_61 + x0,4_69 <= 1
 R9: x1,2_29 + x1,2_40 + x1,2_52 + x1,2_61 + x1,2_69 <= 1
 R10: x1,3_29 + x1,3_40 + x1,3_52 + x1,3_61 + x1,3_69 <= 1
 R11: x1,4_29 + x1,4_40 + x1,4_52 + x1,4_61 + x1,4_69 <= 1
 R12: x2,3_29 + x2,3_40 + x2,3_52 + x2,3_61 + x2,3_69 <= 1
 R13: x2,4_29 + x2,4_40 + x2,4_52 + x2,4_61 + x2,4_69 <= 1
 R14: x3,4_29 + x3,4_40 + x3,4_52 + x3,4_61 + x3,4_69 <= 1
 R15: p0 - p1 <= -1
 R16: - 29 x0,1_29 - p0 + p1 >= 0
 R17: 251 x0,1_29 - p0 + p1 <= 280
 R18: - 40 x0,1_40 - p0 + p1 >= 0
 R19: 251 x0,1_40 - p0 + p1 <= 291
 R20: - 52 x0,1_52 - p0 + p1 >= 0
 R21: 251 x0,1_52 - p0 + p1 <= 303
 R22: - 61 x0,1_61 - p0 + p1 >= 0
 R23: 251 x0,1_61 - p0 + p1 <= 312
 R24: - 69 x0,1_69 - p0 + p1 >= 0
 R25: 251 x0,1_69 - p0 + p1 <= 320
 R26: p0 - p2 <= -1
 R27: - 29 x0,2_29 - p0 + p2 >= 0
 R28: 251 x0,2_29 - p0 + p2 <= 280
 R29: - 40 x0,2_40 - p0 + p2 >= 0
 R30: 251 x0,2_40 - p0 + p2 <= 291
 R31: - 52 x0,2_52 - p0 + p2 >= 0
 R32: 251 x0,2_52 - p0 + p2 <= 303
 R33: - 61 x0,2_61 - p0 + p2 >= 0
 R34: 251 x0,2_61 - p0 + p2 <= 312
 R35: - 69 x0,2_69 - p0 + p2 >= 0
 R36: 251 x0,2_69 - p0 + p2 <= 320
 R37: p0 - p3 <= -1
 R38: - 29 x0,3_29 - p0 + p3 >= 0
 R39: 251 x0,3_29 - p0 + p3 <= 280
 R40: - 40 x0,3_40 - p0 + p3 >= 0
 R41: 251 x0,3_40 - p0 + p3 <= 291
 R42: - 52 x0,3_52 - p0 + p3 >= 0
 R43: 251 x0,3_52 - p0 + p3 <= 303
 R44: - 61 x0,3_61 - p0 + p3 >= 0
 R45: 251 x0,3_61 - p0 + p3 <= 312
 R46: - 69 x0,3_69 - p0 + p3 >= 0
 R47: 251 x0,3_69 - p0 + p3 <= 320
 R48: p0 - p4 <= -1
 R49: - 29 x0,4_29 - p0 + p4 >= 0
 R50: 251 x0,4_29 - p0 + p4 <= 280
 R51: - 40 x0,4_40 - p0 + p4 >= 0
 R52: 251 x0,4_40 - p0 + p4 <= 291
 R53: - 52 x0,4_52 - p0 + p4 >= 0
 R54: 251 x0,4_52 - p0 + p4 <= 303
 R55: - 61 x0,4_61 - p0 + p4 >= 0
 R56: 251 x0,4_61 - p0 + p4 <= 312
 R57: - 69 x0,4_69 - p0 + p4 >= 0
 R58: 251 x0,4_69 - p0 + p4 <= 320
 R59: p1 - p2 <= -1
 R60: - 29 x1,2_29 - p1 + p2 >= 0
 R61: 251 x1,2_29 - p1 + p2 <= 280
 R62: - 40 x1,2_40 - p1 + p2 >= 0
 R63: 251 x1,2_40 - p1 + p2 <= 291
 R64: - 52 x1,2_52 - p1 + p2 >= 0
 R65: 251 x1,2_52 - p1 + p2 <= 303
 R66: - 61 x1,2_61 - p1 + p2 >= 0
 R67: 251 x1,2_61 - p1 + p2 <= 312
 R68: - 69 x1,2_69 - p1 + p2 >= 0
 R69: 251 x1,2_69 - p1 + p2 <= 320
 R70: p1 - p3 <= -1
 R71: - 29 x1,3_29 - p1 + p3 >= 0
 R72: 251 x1,3_29 - p1 + p3 <= 280
 R73: - 40 x1,3_40 - p1 + p3 >= 0
 R74: 251 x1,3_40 - p1 + p3 <= 291
 R75: - 52 x1,3_52 - p1 + p3 >= 0
 R76: 251 x1,3_52 - p1 + p3 <= 303
 R77: - 61 x1,3_61 - p1 + p3 >= 0
 R78: 251 x1,3_61 - p1 + p3 <= 312
 R79: - 69 x1,3_69 - p1 + p3 >= 0
 R80: 251 x1,3_69 - p1 + p3 <= 320
 R81: p1 - p4 <= -1
 R82: - 29 x1,4_29 - p1 + p4 >= 0
 R83: 251 x1,4_29 - p1 + p4 <= 280
 R84: - 40 x1,4_40 - p1 + p4 >= 0
 R85: 251 x1,4_40 - p1 + p4 <= 291
 R86: - 52 x1,4_52 - p1 + p4 >= 0
 R87: 251 x1,4_52 - p1 + p4 <= 303
 R88: - 61 x1,4_61 - p1 + p4 >= 0
 R89: 251 x1,4_61 - p1 + p4 <= 312
 R90: - 69 x1,4_69 - p1 + p4 >= 0
 R91: 251 x1,4_69 - p1 + p4 <= 320
 R92: p2 - p3 <= -1
 R93: - 29 x2,3_29 - p2 + p3 >= 0
 R94: 251 x2,3_29 - p2 + p3 <= 280
 R95: - 40 x2,3_40 - p2 + p3 >= 0
 R96: 251 x2,3_40 - p2 + p3 <= 291
 R97: - 52 x2,3_52 - p2 + p3 >= 0
 R98: 251 x2,3_52 - p2 + p3 <= 303
 R99: - 61 x2,3_61 - p2 + p3 >= 0
 R100: 251 x2,3_61 - p2 + p3 <= 312
 R101: - 69 x2,3_69 - p2 + p3 >= 0
 R102: 251 x2,3_69 - p2 + p3 <= 320
 R103: p2 - p4 <= -1
 R104: - 29 x2,4_29 - p2 + p4 >= 0
 R105: 251 x2,4_29 - p2 + p4 <= 280
 R106: - 40 x2,4_40 - p2 + p4 >= 0
 R107: 251 x2,4_40 - p2 + p4 <= 291
 R108: - 52 x2,4_52 - p2 + p4 >= 0
 R109: 251 x2,4_52 - p2 + p4 <= 303
 R110: - 61 x2,4_61 - p2 + p4 >= 0
 R111: 251 x2,4_61 - p2 + p4 <= 312
 R112: - 69 x2,4_69 - p2 + p4 >= 0
 R113: 251 x2,4_69 - p2 + p4 <= 320
 R114: p3 - p4 <= -1
 R115: - 29 x3,4_29 - p3 + p4 >= 0
 R116: 251 x3,4_29 - p3 + p4 <= 280
 R117: - 40 x3,4_40 - p3 + p4 >= 0
 R118: 251 x3,4_40 - p3 + p4 <= 291
 R119: - 52 x3,4_52 - p3 + p4 >= 0
 R120: 251 x3,4_52 - p3 + p4 <= 303
 R121: - 61 x3,4_61 - p3 + p4 >= 0
 R122: 251 x3,4_61 - p3 + p4 <= 312
 R123: - 69 x3,4_69 - p3 + p4 >= 0
 R124: 251 x3,4_69 - p3 + p4 <= 320
Bounds
Binaries
 x0,1_29 x0,1_40 x0,1_52 x0,1_61 x0,1_69 x0,2_29 x0,2_40 x0,2_52 x0,2_61
 x0,2_69 x0,3_29 x0,3_40 x0,3_52 x0,3_61 x0,3_69 x0,4_29 x0,4_40 x0,4_52
 x0,4_61 x0,4_69 x1,2_29 x1,2_40 x1,2_52 x1,2_61 x1,2_69 x1,3_29 x1,3_40
 x1,3_52 x1,3_61 x1,3_69 x1,4_29 x1,4_40 x1,4_52 x1,4_61 x1,4_69 x2,3_29
 x2,3_40 x2,3_52 x2,3_61 x2,3_69 x2,4_29 x2,4_40 x2,4_52 x2,4_61 x2,4_69
 x3,4_29 x3,4_40 x3,4_52 x3,4_61 x3,4_69
Generals
 p0 p1 p2 p3 p4
End
