logs/drand/max/drand-05-075-2.sol
# Objective value = 5
x0,1_29 0
x0,1_40 0
x0,1_52 0
x0,1_61 0
x0,1_69 0
x0,2_29 0
x0,2_40 0
x0,2_52 0
x0,2_61 0
x0,2_69 0
x0,3_29 0
x0,3_40 0
x0,3_52 0
x0,3_61 1
x0,3_69 0
x0,4_29 0
x0,4_40 0
x0,4_52 0
x0,4_61 0
x0,4_69 0
x1,2_29 1
x1,2_40 0
x1,2_52 0
x1,2_61 0
x1,2_69 0
x1,3_29 0
x1,3_40 0
x1,3_52 1
x1,3_61 0
x1,3_69 0
x1,4_29 0
x1,4_40 0
x1,4_52 0
x1,4_61 0
x1,4_69 1
x2,3_29 0
x2,3_40 0
x2,3_52 0
x2,3_61 0
x2,3_69 0
x2,4_29 0
x2,4_40 1
x2,4_52 0
x2,4_61 0
x2,4_69 0
x3,4_29 0
x3,4_40 0
x3,4_52 0
x3,4_61 0
x3,4_69 0
p0 0
p1 9
p2 38
p3 61
p4 78
